
******************************************************************************
This program contains Ipopt, a library for large-scale nonlinear optimization.
 Ipopt is released as open source code under the Eclipse Public License (EPL).
         For more information visit http://projects.coin-or.org/Ipopt

This version of Ipopt was compiled from source code available at
    https://github.com/IDAES/Ipopt as part of the Institute for the Design of
    Advanced Energy Systems Process Systems Engineering Framework (IDAES PSE
    Framework) Copyright (c) 2018-2019. See https://github.com/IDAES/idaes-pse.

This version of Ipopt was compiled using HSL, a collection of Fortran codes
    for large-scale scientific computation.  All technical papers, sales and
    publicity material resulting from use of the HSL codes within IPOPT must
    contain the following acknowledgement:
        HSL, a collection of Fortran codes for large-scale scientific
        computation. See http://www.hsl.rl.ac.uk.
******************************************************************************

This is Ipopt version 3.13.2, running with linear solver ma27.

Number of nonzeros in equality constraint Jacobian...:      808
Number of nonzeros in inequality constraint Jacobian.:        0
Number of nonzeros in Lagrangian Hessian.............:      702

Total number of variables............................:      351
                     variables with only lower bounds:      108
                variables with lower and upper bounds:      189
                     variables with only upper bounds:        0
Total number of equality constraints.................:      350
Total number of inequality constraints...............:        0
        inequality constraints with only lower bounds:        0
   inequality constraints with lower and upper bounds:        0
        inequality constraints with only upper bounds:        0

iter    objective    inf_pr   inf_du lg(mu)  ||d||  lg(rg) alpha_du alpha_pr  ls
   0  0.0000000e+00 4.92e-01 6.66e-16  -1.0 0.00e+00    -  0.00e+00 0.00e+00   0
   1  5.9998373e+00 3.16e+00 3.54e+04  -1.0 2.86e+05    -  4.92e-01 5.27e-01h  1
   2  7.1415807e+00 2.83e+00 3.20e+04  -1.0 1.62e+05    -  7.95e-01 8.57e-02h  1
   3  7.3416098e+00 2.79e+00 3.16e+04  -1.0 2.12e+05    -  8.03e-01 1.49e-02h  1
   4  3.2011737e+01 2.66e-01 1.28e+04  -1.0 2.13e+05    -  8.10e-01 9.90e-01h  1
   5  3.6854186e+01 8.31e-03 4.53e+03  -1.0 2.77e+04    -  9.41e-01 9.90e-01h  1
   6  3.6961978e+01 1.46e-04 4.82e+01  -1.0 6.00e+02    -  9.90e-01 9.90e-01h  1
   7  3.6963227e+01 1.42e-04 2.25e+07  -1.0 4.85e+02    -  9.90e-01 3.09e-02f  6
   8  3.6966541e+01 1.38e-04 4.51e+07  -1.0 1.31e+03    -  9.92e-01 3.09e-02f  6
   9  3.7071306e+01 2.34e-05 7.00e+05  -1.0 1.29e+03    -  1.00e+00 9.90e-01H  1
iter    objective    inf_pr   inf_du lg(mu)  ||d||  lg(rg) alpha_du alpha_pr  ls
  10  3.7072026e+01 2.62e-07 2.50e+07  -1.0 8.79e+00    -  1.00e+00 9.90e-01h  1
  11  3.7072031e+01 2.63e-09 2.50e+09  -1.0 5.64e-02    -  1.00e+00 9.90e-01h  1
  12  3.7072031e+01 2.63e-11 2.50e+11  -1.0 5.64e-04    -  1.00e+00 9.90e-01h  1
In iteration 12, 27 Slacks too small, adjusting variable bounds
  13  3.7072031e+01 2.14e-12 2.50e+13  -1.0 5.63e-06    -  1.00e+00 9.90e-01h  1
  14  3.7072031e+01 1.30e-12 1.24e+15  -1.0 3.50e-07    -  1.00e+00 5.00e-01h  2
  15  3.7072031e+01 6.24e-13 9.27e+14  -1.0 1.20e-06    -  1.00e+00 2.50e-01h  3
  16  3.7072031e+01 2.98e-12 9.38e-02  -1.0 1.02e-07    -  1.00e+00 1.00e+00s 22
  17  3.6962999e+01 4.75e-04 1.03e+00  -9.0 1.47e+03    -  9.11e-01 9.11e-01s 22
  18  3.6962329e+01 3.59e-09 1.16e-04  -9.0 7.56e+00    -  1.00e+00 1.00e+00s 22
  19  3.6962329e+01 1.79e-12 1.31e-09  -9.0 1.04e-05    -  1.00e+00 1.00e+00s 22

Number of Iterations....: 19

                                   (scaled)                 (unscaled)
Objective...............:   3.6962329038194994e+01    3.6962329038194994e+01
Dual infeasibility......:   1.3096723705530167e-09    1.3096723705530167e-09
Constraint violation....:   1.7879031588563521e-12    1.7879031588563521e-12
Complementarity.........:   9.0910269899588652e-10    9.0910269899588652e-10
Overall NLP error.......:   8.8406412713423605e-12    1.3096723705530167e-09


Number of objective function evaluations             = 63
Number of objective gradient evaluations             = 20
Number of equality constraint evaluations            = 63
Number of inequality constraint evaluations          = 0
Number of equality constraint Jacobian evaluations   = 20
Number of inequality constraint Jacobian evaluations = 0
Number of Lagrangian Hessian evaluations             = 19
Total CPU secs in IPOPT (w/o function evaluations)   =      0.039
Total CPU secs in NLP function evaluations           =      0.605

EXIT: Optimal Solution Found.
